(set-logic QF_S)
(declare-fun var0 () String)
(assert (str.in.re var0 (re.++ (re.* (re.+ (str.to.re "000"))) (re.++ (re.union (re.+ (str.to.re "111")) (re.+ (str.to.re "22"))) (re.++ (re.* (re.union (str.to.re "333") (str.to.re "444"))) (re.++ (re.+ (re.* (str.to.re "5"))) (re.++ (re.union (re.union (str.to.re "666") (str.to.re "77")) (re.union (str.to.re "8") (str.to.re "9"))) (re.++ (re.+ (re.union (str.to.re "aaa") (str.to.re "bbb"))) (re.++ (re.union (re.* (str.to.re "cc")) (re.* (str.to.re "d"))) (re.++ (re.union (re.* (str.to.re "ee")) (re.* (str.to.re "fff"))) (re.++ (re.union (re.* (str.to.re "ggg")) (re.* (str.to.re "hh"))) (re.++ (re.union (re.+ (str.to.re "iii")) (re.+ (str.to.re "jjj"))) (re.++ (re.* (re.* (str.to.re "k"))) (re.++ (re.+ (re.union (str.to.re "lll") (str.to.re "mm"))) (re.++ (re.union (re.union (str.to.re "nn") (str.to.re "o")) (re.union (str.to.re "pp") (str.to.re "qqq"))) (re.++ (re.union (re.* (str.to.re "rr")) (re.* (str.to.re "sss"))) (re.++ (re.+ (re.* (str.to.re "ttt"))) (re.++ (re.union (re.union (str.to.re "uuu") (str.to.re "vv")) (re.union (str.to.re "ww") (str.to.re "x"))) (re.++ (re.+ (re.+ (str.to.re "yyy"))) (re.++ (re.+ (re.* (str.to.re "zzz"))) (re.++ (re.+ (re.+ (str.to.re "A"))) (re.++ (re.union (re.union (str.to.re "BB") (str.to.re "CC")) (re.union (str.to.re "DDD") (str.to.re "EEE"))) (re.++ (re.+ (re.* (str.to.re "F"))) (re.++ (re.* (re.union (str.to.re "G") (str.to.re "HH"))) (re.++ (re.+ (re.* (str.to.re "III"))) (re.++ (re.union (re.union (str.to.re "JJJ") (str.to.re "KKK")) (re.union (str.to.re "LLL") (str.to.re "MMM"))) (re.++ (re.+ (re.* (str.to.re "N"))) (re.++ (re.+ (re.union (str.to.re "OOO") (str.to.re "PPP"))) (re.++ (re.+ (re.* (str.to.re "QQQ"))) (re.++ (re.union (re.union (str.to.re "RR") (str.to.re "SSS")) (re.union (str.to.re "TT") (str.to.re "UUU"))) (re.++ (re.* (re.union (str.to.re "VV") (str.to.re "WW"))) (re.++ (re.union (re.* (str.to.re "X")) (re.* (str.to.re "Y"))) (re.++ (re.* (re.* (str.to.re "ZZ"))) (re.++ (re.* (re.* (str.to.re "!"))) (re.++ (re.union (re.+ (str.to.re """""")) (re.+ (str.to.re "###"))) (re.++ (re.* (re.union (str.to.re "$") (str.to.re "%%%"))) (re.++ (re.+ (re.* (str.to.re "&&"))) (re.++ (re.* (re.+ (str.to.re "'"))) (re.++ (re.+ (re.+ (str.to.re "((("))) (re.++ (re.* (re.union (str.to.re ")") (str.to.re "*"))) (re.++ (re.+ (re.+ (str.to.re "+"))) (re.++ (re.* (re.* (str.to.re ",,,"))) (re.* (re.+ (str.to.re "-")))))))))))))))))))))))))))))))))))))))))))))
(assert (not (str.in.re var0 (re.++ (re.union (re.* (str.to.re "0")) (re.* (str.to.re "11"))) (re.++ (re.+ (re.union (str.to.re "22") (str.to.re "3"))) (re.++ (re.* (re.* (str.to.re "4"))) (re.++ (re.union (re.+ (str.to.re "55")) (re.+ (str.to.re "666"))) (re.++ (re.union (re.+ (str.to.re "777")) (re.+ (str.to.re "8"))) (re.++ (re.union (re.* (str.to.re "99")) (re.* (str.to.re "aaa"))) (re.++ (re.* (re.+ (str.to.re "bb"))) (re.++ (re.+ (re.* (str.to.re "c"))) (re.++ (re.union (re.union (str.to.re "ddd") (str.to.re "eee")) (re.union (str.to.re "ff") (str.to.re "gg"))) (re.++ (re.union (re.* (str.to.re "hhh")) (re.* (str.to.re "i"))) (re.++ (re.+ (re.+ (str.to.re "jjj"))) (re.++ (re.union (re.union (str.to.re "k") (str.to.re "l")) (re.union (str.to.re "m") (str.to.re "n"))) (re.++ (re.* (re.* (str.to.re "oo"))) (re.++ (re.+ (re.* (str.to.re "ppp"))) (re.++ (re.+ (re.* (str.to.re "q"))) (re.++ (re.+ (re.union (str.to.re "rr") (str.to.re "s"))) (re.++ (re.* (re.union (str.to.re "ttt") (str.to.re "uu"))) (re.++ (re.* (re.* (str.to.re "v"))) (re.++ (re.+ (re.+ (str.to.re "ww"))) (re.++ (re.* (re.* (str.to.re "x"))) (re.++ (re.* (re.union (str.to.re "yy") (str.to.re "zz"))) (re.++ (re.* (re.+ (str.to.re "AA"))) (re.++ (re.+ (re.* (str.to.re "BBB"))) (re.++ (re.* (re.+ (str.to.re "CC"))) (re.++ (re.union (re.union (str.to.re "DD") (str.to.re "E")) (re.union (str.to.re "FFF") (str.to.re "GGG"))) (re.++ (re.union (re.+ (str.to.re "HH")) (re.+ (str.to.re "II"))) (re.++ (re.union (re.+ (str.to.re "JJJ")) (re.+ (str.to.re "KKK"))) (re.++ (re.union (re.union (str.to.re "LL") (str.to.re "MM")) (re.union (str.to.re "NNN") (str.to.re "OOO"))) (re.++ (re.* (re.union (str.to.re "P") (str.to.re "QQQ"))) (re.++ (re.* (re.+ (str.to.re "RRR"))) (re.++ (re.union (re.* (str.to.re "SS")) (re.* (str.to.re "TTT"))) (re.++ (re.+ (re.union (str.to.re "U") (str.to.re "VVV"))) (re.++ (re.* (re.+ (str.to.re "W"))) (re.++ (re.* (re.+ (str.to.re "XX"))) (re.++ (re.* (re.union (str.to.re "YY") (str.to.re "Z"))) (re.++ (re.union (re.+ (str.to.re "!!!")) (re.+ (str.to.re """"""))) (re.++ (re.* (re.* (str.to.re "###"))) (re.++ (re.+ (re.* (str.to.re "$$$"))) (re.++ (re.+ (re.union (str.to.re "%%") (str.to.re "&&"))) (re.++ (re.+ (re.union (str.to.re "'") (str.to.re "(("))) (re.* (re.+ (str.to.re "))"))))))))))))))))))))))))))))))))))))))))))))))
(check-sat)